NAME 
ROWS
 N  OBJ
 L  R0      
 L  R1      
 L  R2      
 E  R3      
 E  R4      
 E  R5      
 E  R6      
 E  R7      
COLUMNS
    MARKER    'MARKER'                 'INTORG'
    I0(6)     OBJ       -87
    I0(6)     R0        74
    I0(6)     R1        -56
    I0(6)     R2        40
    I0(6)     R3        18
    I0(6)     R4        14
    I0(6)     R7        1
    I1(5)     OBJ       -172
    I1(5)     R0        -69
    I1(5)     R1        -178
    I1(5)     R2        -33
    I1(5)     R4        15
    I1(5)     R7        1
    MARKER    'MARKER'                 'INTEND'
    C2(4)     OBJ       9
    C2(4)     R0        3
    C2(4)     R1        -1
    C2(4)     R5        18
    C2(4)     R6        18
    C3(4)     OBJ       9
    C3(4)     R0        6
    C3(4)     R1        -6
    C3(4)     R2        -5
    C3(4)     R3        12
    C4(5)     OBJ       -5
    C4(5)     R0        -10
    C4(5)     R1        -10
    C4(5)     R2        6
    C4(5)     R4        9
    C4(5)     R5        4
    C5(1)     R3        1
    C6(1)     R4        1
    C7(1)     R5        1
    C8(1)     R6        1
    C9(1)     R7        1
RHS
    RHS1      R0        -80
    RHS1      R1        -80
    RHS1      R2        48
    RHS1      R3        87
    RHS1      R4        72
    RHS1      R5        54
    RHS1      R6        62
BOUNDS
 UP BND1      I0(6)     2
 UP BND1      I1(5)     2
ENDATA
